
Gurobi 9.0.1 (linux64, C++) logging started Wed Jan 20 20:29:00 2021

Academic license - for non-commercial use only
Gurobi Optimizer version 9.0.1 build v9.0.1rc0 (linux64)
Optimize a model with 9 rows, 13 columns and 36 nonzeros
Model fingerprint: 0x1eb964c1
Variable types: 12 continuous, 1 integer (0 binary)
Coefficient statistics:
  Matrix range     [3e-01, 6e+02]
  Objective range  [1e+00, 2e+01]
  Bounds range     [0e+00, 0e+00]
  RHS range        [6e+01, 2e+03]
Found heuristic solution: objective 4100.0000000
Presolve time: 0.03s
Presolved: 9 rows, 13 columns, 36 nonzeros
Variable types: 12 continuous, 1 integer (0 binary)

Root relaxation: objective 0.000000e+00, 4 iterations, 0.01 seconds

    Nodes    |    Current Node    |     Objective Bounds      |     Work
 Expl Unexpl |  Obj  Depth IntInf | Incumbent    BestBd   Gap | It/Node Time

*    0     0               0       0.0000000    0.00000  0.00%     -    0s

Explored 0 nodes (4 simplex iterations) in 0.07 seconds
Thread count was 4 (of 4 available processors)

Solution count 1: 0 

Optimal solution found (tolerance 1.00e-04)
Best objective 0.000000000000e+00, best bound 0.000000000000e+00, gap 0.0000%

Gurobi 9.0.1 (linux64, C++) logging started Wed Jan 20 20:31:39 2021

Academic license - for non-commercial use only
Gurobi Optimizer version 9.0.1 build v9.0.1rc0 (linux64)
Optimize a model with 9 rows, 13 columns and 36 nonzeros
Model fingerprint: 0x1eb964c1
Variable types: 12 continuous, 1 integer (0 binary)
Coefficient statistics:
  Matrix range     [3e-01, 6e+02]
  Objective range  [1e+00, 2e+01]
  Bounds range     [0e+00, 0e+00]
  RHS range        [6e+01, 2e+03]
Found heuristic solution: objective 4100.0000000
Presolve time: 0.00s
Presolved: 9 rows, 13 columns, 36 nonzeros
Variable types: 12 continuous, 1 integer (0 binary)

Root relaxation: objective 0.000000e+00, 4 iterations, 0.00 seconds

    Nodes    |    Current Node    |     Objective Bounds      |     Work
 Expl Unexpl |  Obj  Depth IntInf | Incumbent    BestBd   Gap | It/Node Time

*    0     0               0       0.0000000    0.00000  0.00%     -    0s

Explored 0 nodes (4 simplex iterations) in 0.00 seconds
Thread count was 4 (of 4 available processors)

Solution count 1: 0 

Optimal solution found (tolerance 1.00e-04)
Best objective 0.000000000000e+00, best bound 0.000000000000e+00, gap 0.0000%

Gurobi 9.0.1 (linux64, C++) logging started Wed Jan 20 20:36:14 2021

Academic license - for non-commercial use only
Gurobi Optimizer version 9.0.1 build v9.0.1rc0 (linux64)
Optimize a model with 11 rows, 13 columns and 38 nonzeros
Model fingerprint: 0x5ced31cc
Variable types: 12 continuous, 1 integer (0 binary)
Coefficient statistics:
  Matrix range     [3e-01, 6e+02]
  Objective range  [1e+00, 2e+01]
  Bounds range     [0e+00, 0e+00]
  RHS range        [6e+01, 2e+03]
Found heuristic solution: objective 4100.0000000
Presolve removed 2 rows and 0 columns
Presolve time: 0.00s
Presolved: 9 rows, 13 columns, 36 nonzeros
Variable types: 12 continuous, 1 integer (0 binary)

Root relaxation: objective 0.000000e+00, 4 iterations, 0.00 seconds

    Nodes    |    Current Node    |     Objective Bounds      |     Work
 Expl Unexpl |  Obj  Depth IntInf | Incumbent    BestBd   Gap | It/Node Time

*    0     0               0       0.0000000    0.00000  0.00%     -    0s

Explored 0 nodes (4 simplex iterations) in 0.00 seconds
Thread count was 4 (of 4 available processors)

Solution count 1: 0 

Optimal solution found (tolerance 1.00e-04)
Best objective 0.000000000000e+00, best bound 0.000000000000e+00, gap 0.0000%

Gurobi 9.0.1 (linux64, C++) logging started Wed Jan 20 20:36:29 2021

Academic license - for non-commercial use only
Gurobi Optimizer version 9.0.1 build v9.0.1rc0 (linux64)
Optimize a model with 11 rows, 13 columns and 38 nonzeros
Model fingerprint: 0xb0376980
Variable types: 12 continuous, 1 integer (0 binary)
Coefficient statistics:
  Matrix range     [3e-01, 6e+02]
  Objective range  [1e+00, 2e+01]
  Bounds range     [0e+00, 0e+00]
  RHS range        [6e+01, 2e+03]
Found heuristic solution: objective 4100.0000000
Presolve removed 2 rows and 0 columns
Presolve time: 0.00s
Presolved: 9 rows, 13 columns, 36 nonzeros
Variable types: 12 continuous, 1 integer (0 binary)

Root relaxation: objective 0.000000e+00, 4 iterations, 0.00 seconds

    Nodes    |    Current Node    |     Objective Bounds      |     Work
 Expl Unexpl |  Obj  Depth IntInf | Incumbent    BestBd   Gap | It/Node Time

*    0     0               0       0.0000000    0.00000  0.00%     -    0s

Explored 0 nodes (4 simplex iterations) in 0.00 seconds
Thread count was 4 (of 4 available processors)

Solution count 1: 0 

Optimal solution found (tolerance 1.00e-04)
Best objective 0.000000000000e+00, best bound 0.000000000000e+00, gap 0.0000%

Gurobi 9.0.1 (linux64, C++) logging started Wed Jan 20 20:36:52 2021

Academic license - for non-commercial use only
Gurobi Optimizer version 9.0.1 build v9.0.1rc0 (linux64)
Optimize a model with 9 rows, 13 columns and 36 nonzeros
Model fingerprint: 0xc81cf957
Variable types: 12 continuous, 1 integer (0 binary)
Coefficient statistics:
  Matrix range     [3e-01, 6e+02]
  Objective range  [1e+00, 2e+01]
  Bounds range     [1e+02, 2e+02]
  RHS range        [6e+01, 2e+03]
Found heuristic solution: objective 4100.0000000
Presolve time: 0.00s
Presolved: 9 rows, 13 columns, 36 nonzeros
Variable types: 12 continuous, 1 integer (0 binary)

Root relaxation: objective 0.000000e+00, 4 iterations, 0.00 seconds

    Nodes    |    Current Node    |     Objective Bounds      |     Work
 Expl Unexpl |  Obj  Depth IntInf | Incumbent    BestBd   Gap | It/Node Time

*    0     0               0       0.0000000    0.00000  0.00%     -    0s

Explored 0 nodes (4 simplex iterations) in 0.00 seconds
Thread count was 4 (of 4 available processors)

Solution count 1: 0 

Optimal solution found (tolerance 1.00e-04)
Best objective 0.000000000000e+00, best bound 0.000000000000e+00, gap 0.0000%

Gurobi 9.0.1 (linux64, C++) logging started Wed Jan 20 20:37:12 2021

Academic license - for non-commercial use only
Gurobi Optimizer version 9.0.1 build v9.0.1rc0 (linux64)
Optimize a model with 9 rows, 13 columns and 36 nonzeros
Model fingerprint: 0xc81cf957
Variable types: 12 continuous, 1 integer (0 binary)
Coefficient statistics:
  Matrix range     [3e-01, 6e+02]
  Objective range  [1e+00, 2e+01]
  Bounds range     [1e+02, 2e+02]
  RHS range        [6e+01, 2e+03]
Found heuristic solution: objective 4100.0000000
Presolve time: 0.00s
Presolved: 9 rows, 13 columns, 36 nonzeros
Variable types: 12 continuous, 1 integer (0 binary)

Root relaxation: objective 0.000000e+00, 4 iterations, 0.00 seconds

    Nodes    |    Current Node    |     Objective Bounds      |     Work
 Expl Unexpl |  Obj  Depth IntInf | Incumbent    BestBd   Gap | It/Node Time

*    0     0               0       0.0000000    0.00000  0.00%     -    0s

Explored 0 nodes (4 simplex iterations) in 0.00 seconds
Thread count was 4 (of 4 available processors)

Solution count 1: 0 

Optimal solution found (tolerance 1.00e-04)
Best objective 0.000000000000e+00, best bound 0.000000000000e+00, gap 0.0000%

Gurobi 9.0.1 (linux64, C++) logging started Wed Jan 20 20:37:29 2021

Academic license - for non-commercial use only
Gurobi Optimizer version 9.0.1 build v9.0.1rc0 (linux64)
Optimize a model with 9 rows, 13 columns and 36 nonzeros
Model fingerprint: 0xc81cf957
Variable types: 12 continuous, 1 integer (0 binary)
Coefficient statistics:
  Matrix range     [3e-01, 6e+02]
  Objective range  [1e+00, 2e+01]
  Bounds range     [1e+02, 2e+02]
  RHS range        [6e+01, 2e+03]
Found heuristic solution: objective 4100.0000000
Presolve time: 0.00s
Presolved: 9 rows, 13 columns, 36 nonzeros
Variable types: 12 continuous, 1 integer (0 binary)

Root relaxation: objective 0.000000e+00, 4 iterations, 0.00 seconds

    Nodes    |    Current Node    |     Objective Bounds      |     Work
 Expl Unexpl |  Obj  Depth IntInf | Incumbent    BestBd   Gap | It/Node Time

*    0     0               0       0.0000000    0.00000  0.00%     -    0s

Explored 0 nodes (4 simplex iterations) in 0.00 seconds
Thread count was 4 (of 4 available processors)

Solution count 1: 0 

Optimal solution found (tolerance 1.00e-04)
Best objective 0.000000000000e+00, best bound 0.000000000000e+00, gap 0.0000%

Gurobi 9.0.1 (linux64, C++) logging started Wed Jan 20 20:37:59 2021

Academic license - for non-commercial use only
Gurobi Optimizer version 9.0.1 build v9.0.1rc0 (linux64)
Optimize a model with 9 rows, 13 columns and 36 nonzeros
Model fingerprint: 0xc81cf957
Variable types: 12 continuous, 1 integer (0 binary)
Coefficient statistics:
  Matrix range     [3e-01, 6e+02]
  Objective range  [1e+00, 2e+01]
  Bounds range     [1e+02, 2e+02]
  RHS range        [6e+01, 2e+03]
Found heuristic solution: objective 4100.0000000
Presolve time: 0.00s
Presolved: 9 rows, 13 columns, 36 nonzeros
Variable types: 12 continuous, 1 integer (0 binary)

Root relaxation: objective 0.000000e+00, 4 iterations, 0.00 seconds

    Nodes    |    Current Node    |     Objective Bounds      |     Work
 Expl Unexpl |  Obj  Depth IntInf | Incumbent    BestBd   Gap | It/Node Time

*    0     0               0       0.0000000    0.00000  0.00%     -    0s

Explored 0 nodes (4 simplex iterations) in 0.00 seconds
Thread count was 4 (of 4 available processors)

Solution count 1: 0 

Optimal solution found (tolerance 1.00e-04)
Best objective 0.000000000000e+00, best bound 0.000000000000e+00, gap 0.0000%

Gurobi 9.0.1 (linux64, C++) logging started Wed Jan 20 20:38:52 2021

Academic license - for non-commercial use only
Gurobi Optimizer version 9.0.1 build v9.0.1rc0 (linux64)
Optimize a model with 9 rows, 13 columns and 36 nonzeros
Model fingerprint: 0xc81cf957
Variable types: 12 continuous, 1 integer (0 binary)
Coefficient statistics:
  Matrix range     [3e-01, 6e+02]
  Objective range  [1e+00, 2e+01]
  Bounds range     [1e+02, 2e+02]
  RHS range        [6e+01, 2e+03]
Found heuristic solution: objective 4100.0000000
Presolve time: 0.00s
Presolved: 9 rows, 13 columns, 36 nonzeros
Variable types: 12 continuous, 1 integer (0 binary)

Root relaxation: objective 0.000000e+00, 4 iterations, 0.00 seconds

    Nodes    |    Current Node    |     Objective Bounds      |     Work
 Expl Unexpl |  Obj  Depth IntInf | Incumbent    BestBd   Gap | It/Node Time

*    0     0               0       0.0000000    0.00000  0.00%     -    0s

Explored 0 nodes (4 simplex iterations) in 0.00 seconds
Thread count was 4 (of 4 available processors)

Solution count 1: 0 

Optimal solution found (tolerance 1.00e-04)
Best objective 0.000000000000e+00, best bound 0.000000000000e+00, gap 0.0000%

Gurobi 9.0.1 (linux64, C++) logging started Wed Jan 20 20:38:56 2021

Academic license - for non-commercial use only
Gurobi Optimizer version 9.0.1 build v9.0.1rc0 (linux64)
Optimize a model with 9 rows, 13 columns and 36 nonzeros
Model fingerprint: 0xc81cf957
Variable types: 12 continuous, 1 integer (0 binary)
Coefficient statistics:
  Matrix range     [3e-01, 6e+02]
  Objective range  [1e+00, 2e+01]
  Bounds range     [1e+02, 2e+02]
  RHS range        [6e+01, 2e+03]
Found heuristic solution: objective 4100.0000000
Presolve time: 0.00s
Presolved: 9 rows, 13 columns, 36 nonzeros
Variable types: 12 continuous, 1 integer (0 binary)

Root relaxation: objective 0.000000e+00, 4 iterations, 0.00 seconds

    Nodes    |    Current Node    |     Objective Bounds      |     Work
 Expl Unexpl |  Obj  Depth IntInf | Incumbent    BestBd   Gap | It/Node Time

*    0     0               0       0.0000000    0.00000  0.00%     -    0s

Explored 0 nodes (4 simplex iterations) in 0.00 seconds
Thread count was 4 (of 4 available processors)

Solution count 1: 0 

Optimal solution found (tolerance 1.00e-04)
Best objective 0.000000000000e+00, best bound 0.000000000000e+00, gap 0.0000%

Gurobi 9.0.1 (linux64, C++) logging started Wed Jan 20 20:39:21 2021

Academic license - for non-commercial use only
Gurobi Optimizer version 9.0.1 build v9.0.1rc0 (linux64)
Optimize a model with 9 rows, 13 columns and 36 nonzeros
Model fingerprint: 0xc81cf957
Variable types: 12 continuous, 1 integer (0 binary)
Coefficient statistics:
  Matrix range     [3e-01, 6e+02]
  Objective range  [1e+00, 2e+01]
  Bounds range     [1e+02, 2e+02]
  RHS range        [6e+01, 2e+03]
Found heuristic solution: objective 4100.0000000
Presolve time: 0.00s
Presolved: 9 rows, 13 columns, 36 nonzeros
Variable types: 12 continuous, 1 integer (0 binary)

Root relaxation: objective 0.000000e+00, 4 iterations, 0.00 seconds

    Nodes    |    Current Node    |     Objective Bounds      |     Work
 Expl Unexpl |  Obj  Depth IntInf | Incumbent    BestBd   Gap | It/Node Time

*    0     0               0       0.0000000    0.00000  0.00%     -    0s

Explored 0 nodes (4 simplex iterations) in 0.00 seconds
Thread count was 4 (of 4 available processors)

Solution count 1: 0 

Optimal solution found (tolerance 1.00e-04)
Best objective 0.000000000000e+00, best bound 0.000000000000e+00, gap 0.0000%

Gurobi 9.0.1 (linux64, C++) logging started Wed Jan 20 20:39:42 2021

Academic license - for non-commercial use only
Gurobi Optimizer version 9.0.1 build v9.0.1rc0 (linux64)
Optimize a model with 9 rows, 13 columns and 36 nonzeros
Model fingerprint: 0xc81cf957
Variable types: 12 continuous, 1 integer (0 binary)
Coefficient statistics:
  Matrix range     [3e-01, 6e+02]
  Objective range  [1e+00, 2e+01]
  Bounds range     [1e+02, 2e+02]
  RHS range        [6e+01, 2e+03]
Found heuristic solution: objective 4100.0000000
Presolve time: 0.00s
Presolved: 9 rows, 13 columns, 36 nonzeros
Variable types: 12 continuous, 1 integer (0 binary)

Root relaxation: objective 0.000000e+00, 4 iterations, 0.00 seconds

    Nodes    |    Current Node    |     Objective Bounds      |     Work
 Expl Unexpl |  Obj  Depth IntInf | Incumbent    BestBd   Gap | It/Node Time

*    0     0               0       0.0000000    0.00000  0.00%     -    0s

Explored 0 nodes (4 simplex iterations) in 0.00 seconds
Thread count was 4 (of 4 available processors)

Solution count 1: 0 

Optimal solution found (tolerance 1.00e-04)
Best objective 0.000000000000e+00, best bound 0.000000000000e+00, gap 0.0000%

Gurobi 9.0.1 (linux64, C++) logging started Wed Jan 20 20:39:57 2021

Academic license - for non-commercial use only
Gurobi Optimizer version 9.0.1 build v9.0.1rc0 (linux64)
Optimize a model with 9 rows, 13 columns and 36 nonzeros
Model fingerprint: 0xc81cf957
Variable types: 12 continuous, 1 integer (0 binary)
Coefficient statistics:
  Matrix range     [3e-01, 6e+02]
  Objective range  [1e+00, 2e+01]
  Bounds range     [1e+02, 2e+02]
  RHS range        [6e+01, 2e+03]
Found heuristic solution: objective 4100.0000000
Presolve time: 0.00s
Presolved: 9 rows, 13 columns, 36 nonzeros
Variable types: 12 continuous, 1 integer (0 binary)

Root relaxation: objective 0.000000e+00, 4 iterations, 0.00 seconds

    Nodes    |    Current Node    |     Objective Bounds      |     Work
 Expl Unexpl |  Obj  Depth IntInf | Incumbent    BestBd   Gap | It/Node Time

*    0     0               0       0.0000000    0.00000  0.00%     -    0s

Explored 0 nodes (4 simplex iterations) in 0.00 seconds
Thread count was 4 (of 4 available processors)

Solution count 1: 0 

Optimal solution found (tolerance 1.00e-04)
Best objective 0.000000000000e+00, best bound 0.000000000000e+00, gap 0.0000%

Gurobi 9.0.1 (linux64, C++) logging started Wed Jan 20 20:41:10 2021

Academic license - for non-commercial use only
Gurobi Optimizer version 9.0.1 build v9.0.1rc0 (linux64)
Optimize a model with 9 rows, 13 columns and 36 nonzeros
Model fingerprint: 0xc81cf957
Variable types: 12 continuous, 1 integer (0 binary)
Coefficient statistics:
  Matrix range     [3e-01, 6e+02]
  Objective range  [1e+00, 2e+01]
  Bounds range     [1e+02, 2e+02]
  RHS range        [6e+01, 2e+03]
Found heuristic solution: objective 4100.0000000
Presolve time: 0.00s
Presolved: 9 rows, 13 columns, 36 nonzeros
Variable types: 12 continuous, 1 integer (0 binary)

Root relaxation: objective 0.000000e+00, 4 iterations, 0.00 seconds

    Nodes    |    Current Node    |     Objective Bounds      |     Work
 Expl Unexpl |  Obj  Depth IntInf | Incumbent    BestBd   Gap | It/Node Time

*    0     0               0       0.0000000    0.00000  0.00%     -    0s

Explored 0 nodes (4 simplex iterations) in 0.00 seconds
Thread count was 4 (of 4 available processors)

Solution count 1: 0 

Optimal solution found (tolerance 1.00e-04)
Best objective 0.000000000000e+00, best bound 0.000000000000e+00, gap 0.0000%

Gurobi 9.0.1 (linux64, C++) logging started Wed Jan 20 20:41:36 2021

Academic license - for non-commercial use only
Gurobi Optimizer version 9.0.1 build v9.0.1rc0 (linux64)
Optimize a model with 9 rows, 13 columns and 36 nonzeros
Model fingerprint: 0xc81cf957
Variable types: 12 continuous, 1 integer (0 binary)
Coefficient statistics:
  Matrix range     [3e-01, 6e+02]
  Objective range  [1e+00, 2e+01]
  Bounds range     [1e+02, 2e+02]
  RHS range        [6e+01, 2e+03]
Found heuristic solution: objective 4100.0000000
Presolve time: 0.00s
Presolved: 9 rows, 13 columns, 36 nonzeros
Variable types: 12 continuous, 1 integer (0 binary)

Root relaxation: objective 0.000000e+00, 4 iterations, 0.00 seconds

    Nodes    |    Current Node    |     Objective Bounds      |     Work
 Expl Unexpl |  Obj  Depth IntInf | Incumbent    BestBd   Gap | It/Node Time

*    0     0               0       0.0000000    0.00000  0.00%     -    0s

Explored 0 nodes (4 simplex iterations) in 0.00 seconds
Thread count was 4 (of 4 available processors)

Solution count 1: 0 

Optimal solution found (tolerance 1.00e-04)
Best objective 0.000000000000e+00, best bound 0.000000000000e+00, gap 0.0000%

Gurobi 9.0.1 (linux64, C++) logging started Wed Jan 20 20:41:58 2021

Academic license - for non-commercial use only
Gurobi Optimizer version 9.0.1 build v9.0.1rc0 (linux64)
Optimize a model with 10 rows, 13 columns and 37 nonzeros
Model fingerprint: 0x6a061b47
Variable types: 12 continuous, 1 integer (0 binary)
Coefficient statistics:
  Matrix range     [3e-01, 6e+02]
  Objective range  [1e+00, 2e+01]
  Bounds range     [1e+02, 2e+02]
  RHS range        [6e+01, 2e+03]
Found heuristic solution: objective 4100.0000000
Presolve removed 1 rows and 0 columns
Presolve time: 0.00s
Presolved: 9 rows, 13 columns, 36 nonzeros
Variable types: 12 continuous, 1 integer (0 binary)

Root relaxation: objective 0.000000e+00, 4 iterations, 0.00 seconds

    Nodes    |    Current Node    |     Objective Bounds      |     Work
 Expl Unexpl |  Obj  Depth IntInf | Incumbent    BestBd   Gap | It/Node Time

*    0     0               0       0.0000000    0.00000  0.00%     -    0s

Explored 0 nodes (4 simplex iterations) in 0.00 seconds
Thread count was 4 (of 4 available processors)

Solution count 1: 0 

Optimal solution found (tolerance 1.00e-04)
Best objective 0.000000000000e+00, best bound 0.000000000000e+00, gap 0.0000%

Gurobi 9.0.1 (linux64, C++) logging started Wed Jan 20 20:43:10 2021

Academic license - for non-commercial use only
Gurobi Optimizer version 9.0.1 build v9.0.1rc0 (linux64)
Optimize a model with 10 rows, 13 columns and 37 nonzeros
Model fingerprint: 0x6a061b47
Variable types: 12 continuous, 1 integer (0 binary)
Coefficient statistics:
  Matrix range     [3e-01, 6e+02]
  Objective range  [1e+00, 2e+01]
  Bounds range     [1e+02, 2e+02]
  RHS range        [6e+01, 2e+03]
Found heuristic solution: objective 4100.0000000
Presolve removed 1 rows and 0 columns
Presolve time: 0.00s
Presolved: 9 rows, 13 columns, 36 nonzeros
Variable types: 12 continuous, 1 integer (0 binary)

Root relaxation: objective 0.000000e+00, 4 iterations, 0.00 seconds

    Nodes    |    Current Node    |     Objective Bounds      |     Work
 Expl Unexpl |  Obj  Depth IntInf | Incumbent    BestBd   Gap | It/Node Time

*    0     0               0       0.0000000    0.00000  0.00%     -    0s

Explored 0 nodes (4 simplex iterations) in 0.00 seconds
Thread count was 4 (of 4 available processors)

Solution count 1: 0 

Optimal solution found (tolerance 1.00e-04)
Best objective 0.000000000000e+00, best bound 0.000000000000e+00, gap 0.0000%

Gurobi 9.0.1 (linux64, C++) logging started Wed Jan 20 20:43:51 2021

Academic license - for non-commercial use only
Gurobi Optimizer version 9.0.1 build v9.0.1rc0 (linux64)
Optimize a model with 10 rows, 13 columns and 37 nonzeros
Model fingerprint: 0x6a061b47
Variable types: 12 continuous, 1 integer (0 binary)
Coefficient statistics:
  Matrix range     [3e-01, 6e+02]
  Objective range  [1e+00, 2e+01]
  Bounds range     [1e+02, 2e+02]
  RHS range        [6e+01, 2e+03]
Found heuristic solution: objective 4100.0000000
Presolve removed 1 rows and 0 columns
Presolve time: 0.00s
Presolved: 9 rows, 13 columns, 36 nonzeros
Variable types: 12 continuous, 1 integer (0 binary)

Root relaxation: objective 0.000000e+00, 4 iterations, 0.00 seconds

    Nodes    |    Current Node    |     Objective Bounds      |     Work
 Expl Unexpl |  Obj  Depth IntInf | Incumbent    BestBd   Gap | It/Node Time

*    0     0               0       0.0000000    0.00000  0.00%     -    0s

Explored 0 nodes (4 simplex iterations) in 0.00 seconds
Thread count was 4 (of 4 available processors)

Solution count 1: 0 

Optimal solution found (tolerance 1.00e-04)
Best objective 0.000000000000e+00, best bound 0.000000000000e+00, gap 0.0000%

Gurobi 9.0.1 (linux64, C++) logging started Wed Jan 20 20:44:43 2021

Academic license - for non-commercial use only
Gurobi Optimizer version 9.0.1 build v9.0.1rc0 (linux64)
Optimize a model with 9 rows, 13 columns and 36 nonzeros
Model fingerprint: 0xc81cf957
Variable types: 12 continuous, 1 integer (0 binary)
Coefficient statistics:
  Matrix range     [3e-01, 6e+02]
  Objective range  [1e+00, 2e+01]
  Bounds range     [1e+02, 2e+02]
  RHS range        [6e+01, 2e+03]
Found heuristic solution: objective 4100.0000000
Presolve time: 0.00s
Presolved: 9 rows, 13 columns, 36 nonzeros
Variable types: 12 continuous, 1 integer (0 binary)

Root relaxation: objective 0.000000e+00, 4 iterations, 0.00 seconds

    Nodes    |    Current Node    |     Objective Bounds      |     Work
 Expl Unexpl |  Obj  Depth IntInf | Incumbent    BestBd   Gap | It/Node Time

*    0     0               0       0.0000000    0.00000  0.00%     -    0s

Explored 0 nodes (4 simplex iterations) in 0.00 seconds
Thread count was 4 (of 4 available processors)

Solution count 1: 0 

Optimal solution found (tolerance 1.00e-04)
Best objective 0.000000000000e+00, best bound 0.000000000000e+00, gap 0.0000%

Gurobi 9.0.1 (linux64, C++) logging started Wed Jan 20 20:45:14 2021

Academic license - for non-commercial use only
Gurobi Optimizer version 9.0.1 build v9.0.1rc0 (linux64)
Optimize a model with 9 rows, 13 columns and 36 nonzeros
Model fingerprint: 0xcedde40b
Variable types: 12 continuous, 1 integer (0 binary)
Coefficient statistics:
  Matrix range     [3e-01, 6e+02]
  Objective range  [1e+00, 2e+01]
  Bounds range     [1e+00, 2e+00]
  RHS range        [6e+01, 2e+03]
Found heuristic solution: objective 4100.0000000
Presolve time: 0.00s
Presolved: 9 rows, 13 columns, 36 nonzeros
Variable types: 12 continuous, 1 integer (0 binary)

Root relaxation: objective 0.000000e+00, 5 iterations, 0.00 seconds

    Nodes    |    Current Node    |     Objective Bounds      |     Work
 Expl Unexpl |  Obj  Depth IntInf | Incumbent    BestBd   Gap | It/Node Time

*    0     0               0       0.0000000    0.00000  0.00%     -    0s

Explored 0 nodes (5 simplex iterations) in 0.00 seconds
Thread count was 4 (of 4 available processors)

Solution count 1: 0 

Optimal solution found (tolerance 1.00e-04)
Best objective 0.000000000000e+00, best bound 0.000000000000e+00, gap 0.0000%

Gurobi 9.0.1 (linux64, C++) logging started Wed Jan 20 20:46:12 2021

Academic license - for non-commercial use only
Gurobi Optimizer version 9.0.1 build v9.0.1rc0 (linux64)
Optimize a model with 9 rows, 13 columns and 36 nonzeros
Model fingerprint: 0x4ededc11
Variable types: 11 continuous, 2 integer (0 binary)
Coefficient statistics:
  Matrix range     [3e-01, 6e+02]
  Objective range  [1e+00, 2e+01]
  Bounds range     [1e+00, 2e+00]
  RHS range        [6e+01, 2e+03]
Found heuristic solution: objective 4100.0000000
Presolve time: 0.00s
Presolved: 9 rows, 13 columns, 36 nonzeros
Variable types: 11 continuous, 2 integer (0 binary)

Root relaxation: objective 0.000000e+00, 5 iterations, 0.00 seconds

    Nodes    |    Current Node    |     Objective Bounds      |     Work
 Expl Unexpl |  Obj  Depth IntInf | Incumbent    BestBd   Gap | It/Node Time

*    0     0               0       0.0000000    0.00000  0.00%     -    0s

Explored 0 nodes (5 simplex iterations) in 0.00 seconds
Thread count was 4 (of 4 available processors)

Solution count 2: 0 4100 

Optimal solution found (tolerance 1.00e-04)
Best objective 0.000000000000e+00, best bound 0.000000000000e+00, gap 0.0000%

Gurobi 9.0.1 (linux64, C++) logging started Wed Jan 20 20:46:39 2021

Academic license - for non-commercial use only
Gurobi Optimizer version 9.0.1 build v9.0.1rc0 (linux64)
Optimize a model with 9 rows, 13 columns and 36 nonzeros
Model fingerprint: 0x73344df8
Variable types: 11 continuous, 2 integer (0 binary)
Coefficient statistics:
  Matrix range     [3e-01, 6e+02]
  Objective range  [1e+00, 2e+01]
  Bounds range     [1e+00, 2e+00]
  RHS range        [6e+01, 2e+03]
Found heuristic solution: objective 4100.0000000
Presolve time: 0.00s
Presolved: 9 rows, 13 columns, 36 nonzeros
Variable types: 11 continuous, 2 integer (0 binary)

Root relaxation: objective 0.000000e+00, 5 iterations, 0.00 seconds

    Nodes    |    Current Node    |     Objective Bounds      |     Work
 Expl Unexpl |  Obj  Depth IntInf | Incumbent    BestBd   Gap | It/Node Time

     0     0    0.00000    0    1 4100.00000    0.00000   100%     -    0s
H    0     0                      55.1854262    0.00000   100%     -    0s
*    0     0               0       0.0000000    0.00000  0.00%     -    0s

Cutting planes:
  Gomory: 1
  MIR: 2

Explored 1 nodes (9 simplex iterations) in 0.08 seconds
Thread count was 4 (of 4 available processors)

Solution count 3: 0 55.1854 4100 

Optimal solution found (tolerance 1.00e-04)
Best objective 0.000000000000e+00, best bound 0.000000000000e+00, gap 0.0000%

Gurobi 9.0.1 (linux64, C++) logging started Wed Jan 20 20:46:55 2021

Academic license - for non-commercial use only
Gurobi Optimizer version 9.0.1 build v9.0.1rc0 (linux64)
Optimize a model with 9 rows, 13 columns and 36 nonzeros
Model fingerprint: 0x73344df8
Variable types: 11 continuous, 2 integer (0 binary)
Coefficient statistics:
  Matrix range     [3e-01, 6e+02]
  Objective range  [1e+00, 2e+01]
  Bounds range     [1e+00, 2e+00]
  RHS range        [6e+01, 2e+03]
Found heuristic solution: objective 4100.0000000
Presolve time: 0.00s
Presolved: 9 rows, 13 columns, 36 nonzeros
Variable types: 11 continuous, 2 integer (0 binary)

Root relaxation: objective 0.000000e+00, 5 iterations, 0.00 seconds

    Nodes    |    Current Node    |     Objective Bounds      |     Work
 Expl Unexpl |  Obj  Depth IntInf | Incumbent    BestBd   Gap | It/Node Time

     0     0    0.00000    0    1 4100.00000    0.00000   100%     -    0s
H    0     0                      55.1854262    0.00000   100%     -    0s
*    0     0               0       0.0000000    0.00000  0.00%     -    0s

Cutting planes:
  Gomory: 1
  MIR: 2

Explored 1 nodes (9 simplex iterations) in 0.00 seconds
Thread count was 4 (of 4 available processors)

Solution count 3: 0 55.1854 4100 

Optimal solution found (tolerance 1.00e-04)
Best objective 0.000000000000e+00, best bound 0.000000000000e+00, gap 0.0000%

Gurobi 9.0.1 (linux64, C++) logging started Wed Jan 20 20:48:04 2021

Academic license - for non-commercial use only
Gurobi Optimizer version 9.0.1 build v9.0.1rc0 (linux64)
Optimize a model with 9 rows, 13 columns and 36 nonzeros
Model fingerprint: 0xdb76fcba
Variable types: 11 continuous, 2 integer (0 binary)
Coefficient statistics:
  Matrix range     [3e-01, 6e+02]
  Objective range  [1e+00, 2e+01]
  Bounds range     [5e-01, 2e+00]
  RHS range        [6e+01, 2e+03]
Found heuristic solution: objective 4100.0000000
Presolve time: 0.00s
Presolved: 9 rows, 13 columns, 36 nonzeros
Variable types: 11 continuous, 2 integer (0 binary)

Root relaxation: objective 0.000000e+00, 6 iterations, 0.00 seconds

    Nodes    |    Current Node    |     Objective Bounds      |     Work
 Expl Unexpl |  Obj  Depth IntInf | Incumbent    BestBd   Gap | It/Node Time

     0     0    0.00000    0    1 4100.00000    0.00000   100%     -    0s
H    0     0                       0.0000000    0.00000  0.00%     -    0s
     0     0    0.00000    0    1    0.00000    0.00000  0.00%     -    0s

Explored 1 nodes (6 simplex iterations) in 0.00 seconds
Thread count was 4 (of 4 available processors)

Solution count 2: 0 4100 

Optimal solution found (tolerance 1.00e-04)
Best objective 0.000000000000e+00, best bound 0.000000000000e+00, gap 0.0000%

Gurobi 9.0.1 (linux64, C++) logging started Sat Jan 23 18:13:38 2021

Academic license - for non-commercial use only
Gurobi Optimizer version 9.0.1 build v9.0.1rc0 (linux64)
Optimize a model with 6 rows, 10 columns and 27 nonzeros
Model fingerprint: 0xe1d9a63a
Variable types: 8 continuous, 2 integer (0 binary)
Coefficient statistics:
  Matrix range     [3e-01, 6e+02]
  Objective range  [6e+01, 2e+02]
  Bounds range     [5e-01, 2e+00]
  RHS range        [6e+01, 2e+03]
Presolve removed 6 rows and 10 columns
Presolve time: 0.00s
Presolve: All rows and columns removed

Explored 0 nodes (0 simplex iterations) in 0.00 seconds
Thread count was 1 (of 4 available processors)

Solution count 1: 661.5 

Optimal solution found (tolerance 1.00e-04)
Best objective 6.615000000000e+02, best bound 6.615000000000e+02, gap 0.0000%

Gurobi 9.0.1 (linux64, C++) logging started Sat Jan 23 18:14:06 2021

Academic license - for non-commercial use only
Gurobi Optimizer version 9.0.1 build v9.0.1rc0 (linux64)
Optimize a model with 6 rows, 10 columns and 27 nonzeros
Model fingerprint: 0x9159180f
Variable types: 8 continuous, 2 integer (0 binary)
Coefficient statistics:
  Matrix range     [3e-01, 6e+02]
  Objective range  [6e+01, 2e+02]
  Bounds range     [5e-01, 2e+00]
  RHS range        [6e+01, 2e+03]
Presolve removed 3 rows and 3 columns
Presolve time: 0.00s
Presolved: 3 rows, 7 columns, 16 nonzeros
Variable types: 5 continuous, 2 integer (0 binary)

Root relaxation: objective 1.097422e+03, 3 iterations, 0.00 seconds

    Nodes    |    Current Node    |     Objective Bounds      |     Work
 Expl Unexpl |  Obj  Depth IntInf | Incumbent    BestBd   Gap | It/Node Time

     0     0 1097.42220    0    1          - 1097.42220      -     -    0s
H    0     0                    1165.1507360 1097.42220  5.81%     -    0s
H    0     0                    1121.9294536 1097.42220  2.18%     -    0s

Explored 1 nodes (3 simplex iterations) in 0.07 seconds
Thread count was 4 (of 4 available processors)

Solution count 2: 1121.93 1165.15 

Optimal solution found (tolerance 1.00e-04)
Best objective 1.121929453572e+03, best bound 1.121929453572e+03, gap 0.0000%

Gurobi 9.0.1 (linux64, C++) logging started Sat Jan 23 18:17:23 2021

Academic license - for non-commercial use only
Gurobi Optimizer version 9.0.1 build v9.0.1rc0 (linux64)
Optimize a model with 6 rows, 10 columns and 27 nonzeros
Model fingerprint: 0xac72b0bd
Variable types: 8 continuous, 2 integer (0 binary)
Coefficient statistics:
  Matrix range     [3e-01, 6e+02]
  Objective range  [6e+01, 2e+02]
  Bounds range     [5e-01, 2e+00]
  RHS range        [6e+01, 2e+03]
Presolve removed 3 rows and 3 columns
Presolve time: 0.00s

Explored 0 nodes (0 simplex iterations) in 0.00 seconds
Thread count was 1 (of 4 available processors)

Solution count 0

Model is infeasible
Best objective -, best bound -, gap -

Gurobi 9.0.1 (linux64, C++) logging started Sat Jan 23 18:17:31 2021

Academic license - for non-commercial use only
Gurobi Optimizer version 9.0.1 build v9.0.1rc0 (linux64)
Optimize a model with 6 rows, 10 columns and 27 nonzeros
Model fingerprint: 0xac72b0bd
Variable types: 8 continuous, 2 integer (0 binary)
Coefficient statistics:
  Matrix range     [3e-01, 6e+02]
  Objective range  [6e+01, 2e+02]
  Bounds range     [5e-01, 2e+00]
  RHS range        [6e+01, 2e+03]
Presolve removed 3 rows and 3 columns
Presolve time: 0.00s

Explored 0 nodes (0 simplex iterations) in 0.00 seconds
Thread count was 1 (of 4 available processors)

Solution count 0

Model is infeasible
Best objective -, best bound -, gap -

Gurobi 9.0.1 (linux64, C++) logging started Sat Jan 23 18:18:01 2021

Academic license - for non-commercial use only
Gurobi Optimizer version 9.0.1 build v9.0.1rc0 (linux64)
Optimize a model with 6 rows, 10 columns and 27 nonzeros
Model fingerprint: 0x954d0d0d
Variable types: 8 continuous, 2 integer (0 binary)
Coefficient statistics:
  Matrix range     [3e-01, 6e+02]
  Objective range  [6e+01, 2e+02]
  Bounds range     [1e+00, 2e+00]
  RHS range        [6e+01, 2e+03]
Presolve removed 3 rows and 3 columns
Presolve time: 0.00s
Presolved: 3 rows, 7 columns, 16 nonzeros
Variable types: 5 continuous, 2 integer (0 binary)

Root relaxation: objective 8.672140e+02, 3 iterations, 0.00 seconds

    Nodes    |    Current Node    |     Objective Bounds      |     Work
 Expl Unexpl |  Obj  Depth IntInf | Incumbent    BestBd   Gap | It/Node Time

*    0     0               0     867.2140193  867.21402  0.00%     -    0s

Explored 0 nodes (3 simplex iterations) in 0.00 seconds
Thread count was 4 (of 4 available processors)

Solution count 1: 867.214 

Optimal solution found (tolerance 1.00e-04)
Best objective 8.672140193190e+02, best bound 8.672140193190e+02, gap 0.0000%

Gurobi 9.0.1 (linux64, C++) logging started Sat Jan 23 18:18:24 2021

Academic license - for non-commercial use only
Gurobi Optimizer version 9.0.1 build v9.0.1rc0 (linux64)
Optimize a model with 6 rows, 10 columns and 27 nonzeros
Model fingerprint: 0xdd7debae
Variable types: 8 continuous, 2 integer (0 binary)
Coefficient statistics:
  Matrix range     [3e-01, 6e+02]
  Objective range  [6e+01, 2e+02]
  Bounds range     [1e+00, 2e+00]
  RHS range        [6e+01, 2e+03]
Presolve removed 3 rows and 3 columns
Presolve time: 0.00s
Presolved: 3 rows, 7 columns, 16 nonzeros
Variable types: 5 continuous, 2 integer (0 binary)

Root relaxation: objective 1.028524e+03, 3 iterations, 0.00 seconds

    Nodes    |    Current Node    |     Objective Bounds      |     Work
 Expl Unexpl |  Obj  Depth IntInf | Incumbent    BestBd   Gap | It/Node Time

*    0     0               0    1028.5238380 1028.52384  0.00%     -    0s

Explored 0 nodes (3 simplex iterations) in 0.00 seconds
Thread count was 4 (of 4 available processors)

Solution count 1: 1028.52 

Optimal solution found (tolerance 1.00e-04)
Best objective 1.028523838011e+03, best bound 1.028523838011e+03, gap 0.0000%

Gurobi 9.0.1 (linux64, C++) logging started Sat Jan 23 18:19:15 2021

Academic license - for non-commercial use only
Gurobi Optimizer version 9.0.1 build v9.0.1rc0 (linux64)
Optimize a model with 6 rows, 10 columns and 27 nonzeros
Model fingerprint: 0x1d25dc64
Variable types: 8 continuous, 2 integer (0 binary)
Coefficient statistics:
  Matrix range     [3e-01, 6e+02]
  Objective range  [6e+01, 2e+02]
  Bounds range     [5e-01, 2e+00]
  RHS range        [6e+01, 2e+03]
Presolve removed 4 rows and 4 columns
Presolve time: 0.00s
Presolved: 2 rows, 6 columns, 10 nonzeros
Variable types: 4 continuous, 2 integer (0 binary)

Root relaxation: objective 1.126364e+03, 2 iterations, 0.00 seconds

    Nodes    |    Current Node    |     Objective Bounds      |     Work
 Expl Unexpl |  Obj  Depth IntInf | Incumbent    BestBd   Gap | It/Node Time

*    0     0               0    1126.3641630 1126.36416  0.00%     -    0s

Explored 0 nodes (2 simplex iterations) in 0.00 seconds
Thread count was 4 (of 4 available processors)

Solution count 1: 1126.36 

Optimal solution found (tolerance 1.00e-04)
Best objective 1.126364163014e+03, best bound 1.126364163014e+03, gap 0.0000%

Gurobi 9.0.1 (linux64, C++) logging started Tue Jan 26 19:04:51 2021

Academic license - for non-commercial use only
Gurobi Optimizer version 9.0.1 build v9.0.1rc0 (linux64)
Optimize a model with 6 rows, 10 columns and 27 nonzeros
Model fingerprint: 0x4997564f
Variable types: 8 continuous, 2 integer (0 binary)
Coefficient statistics:
  Matrix range     [3e-01, 6e+02]
  Objective range  [6e+01, 2e+02]
  Bounds range     [1e+00, 2e+00]
  RHS range        [6e+01, 2e+03]
Presolve removed 3 rows and 3 columns
Presolve time: 0.05s
Presolved: 3 rows, 7 columns, 16 nonzeros
Variable types: 5 continuous, 2 integer (0 binary)

Root relaxation: objective 1.028524e+03, 3 iterations, 0.01 seconds

    Nodes    |    Current Node    |     Objective Bounds      |     Work
 Expl Unexpl |  Obj  Depth IntInf | Incumbent    BestBd   Gap | It/Node Time

*    0     0               0    1028.5238380 1028.52384  0.00%     -    0s

Explored 0 nodes (3 simplex iterations) in 0.09 seconds
Thread count was 4 (of 4 available processors)

Solution count 1: 1028.52 

Optimal solution found (tolerance 1.00e-04)
Best objective 1.028523838011e+03, best bound 1.028523838011e+03, gap 0.0000%

Gurobi 9.0.1 (linux64, C++) logging started Tue Jan 26 19:06:18 2021

Academic license - for non-commercial use only
Gurobi Optimizer version 9.0.1 build v9.0.1rc0 (linux64)
Optimize a model with 6 rows, 10 columns and 27 nonzeros
Model fingerprint: 0xc748aba3
Variable types: 8 continuous, 2 integer (0 binary)
Coefficient statistics:
  Matrix range     [3e-01, 6e+02]
  Objective range  [6e+01, 2e+02]
  Bounds range     [1e+00, 2e+00]
  RHS range        [6e+01, 2e+03]
Presolve removed 3 rows and 3 columns
Presolve time: 0.00s
Presolved: 3 rows, 7 columns, 16 nonzeros
Variable types: 5 continuous, 2 integer (0 binary)

Root relaxation: objective 1.069823e+03, 3 iterations, 0.00 seconds

    Nodes    |    Current Node    |     Objective Bounds      |     Work
 Expl Unexpl |  Obj  Depth IntInf | Incumbent    BestBd   Gap | It/Node Time

     0     0 1069.82323    0    1          - 1069.82323      -     -    0s
H    0     0                    1114.2480252 1069.82323  3.99%     -    0s
     0     0     cutoff    0      1114.24803 1114.24803  0.00%     -    0s

Explored 1 nodes (3 simplex iterations) in 0.06 seconds
Thread count was 4 (of 4 available processors)

Solution count 1: 1114.25 

Optimal solution found (tolerance 1.00e-04)
Best objective 1.114248025199e+03, best bound 1.114248025199e+03, gap 0.0000%
